27
1 0 6
2 0 3
2 1 3
3 1 4
4 1 6
4 2 5
4 3 2
5 1 4
6 1 5
6 4 1
6 5 6
7 0 3
7 2 5
7 3 4
7 5 4
7 6 6
8 5 2
8 7 1
9 4 1
9 6 6
9 7 4
10 0 5
10 1 3
10 2 2
10 3 3
10 4 4
10 5 2
10 7 5
10 9 2
11 0 6
11 1 6
11 2 2
11 3 2
11 7 1
11 8 6
11 9 4
11 10 1
12 2 4
12 7 4
12 8 2
12 9 4
12 11 2
13 0 6
13 1 1
13 3 1
13 5 4
13 6 2
13 12 5
14 2 6
14 3 3
14 11 3
14 12 2
14 13 4
15 1 6
15 6 1
15 8 6
15 11 1
15 12 2
16 1 5
16 2 4
16 4 2
16 7 4
16 8 3
16 10 6
16 11 4
16 14 5
16 15 1
17 1 4
17 4 6
17 6 5
17 9 2
17 10 6
17 11 1
17 13 5
18 0 3
18 1 3
18 2 4
18 3 6
18 7 6
18 9 3
18 10 4
18 12 5
18 14 2
18 16 1
19 1 2
19 2 4
19 6 3
19 9 6
19 13 1
19 16 6
20 5 5
20 7 5
20 13 2
20 14 2
20 15 1
21 2 1
21 3 1
21 5 6
21 7 4
21 8 5
21 10 1
21 11 4
21 12 6
21 17 4
21 18 5
21 20 2
22 1 1
22 4 3
22 5 5
22 6 4
22 7 5
22 8 1
22 9 4
22 11 2
22 15 1
22 17 6
22 18 1
22 20 2
23 0 3
23 1 4
23 2 3
23 8 1
23 9 2
23 10 4
23 11 2
23 13 5
23 14 2
23 15 6
23 17 1
23 18 1
23 20 6
23 21 2
23 22 6
24 1 5
24 3 4
24 4 2
24 5 2
24 6 6
24 7 5
24 8 4
24 9 5
24 10 5
24 13 2
24 14 1
24 16 3
24 17 5
24 18 1
24 20 4
24 21 4
25 3 2
25 9 4
25 10 3
25 12 5
25 14 6
25 17 6
25 18 1
25 19 1
25 21 5
25 24 4
26 4 6
26 6 5
26 9 2
26 15 1
26 17 1
26 18 4
26 25 3
